POSCAR
1.0
       15.1484003067         0.0000000000         0.0000000000
       -7.5742001534        13.1188994923         0.0000000000
        0.0000000000         0.0000000000        30.0000000000
    B    O    C    H
    6    6   18   12
Direct
     0.386579990         0.773150027         0.500000000
     0.613420010         0.226849973         0.500000000
     0.226849973         0.613429964         0.500000000
     0.773150027         0.386570036         0.500000000
     0.386570036         0.613420010         0.500000000
     0.613429964         0.386579990         0.500000000
     0.719340026         0.438680053         0.500000000
     0.280659974         0.561319947         0.500000000
     0.561319947         0.280659974         0.500000000
     0.438680053         0.719340026         0.500000000
     0.719340026         0.280659974         0.500000000
     0.280659974         0.719340026         0.500000000
     0.554109991         0.108229995         0.500000000
     0.445890009         0.891770005         0.500000000
     0.891770005         0.445879996         0.500000000
     0.108229995         0.554120004         0.500000000
     0.554120004         0.445890009         0.500000000
     0.445879996         0.554109991         0.500000000
     0.446770012         0.053079963         0.500000000
     0.553229988         0.946920037         0.500000000
     0.946920037         0.393690050         0.500000000
     0.053079963         0.606309950         0.500000000
     0.606309950         0.553229988         0.500000000
     0.393690050         0.446770012         0.500000000
     0.053079963         0.446770012         0.500000000
     0.946920037         0.553229988         0.500000000
     0.393690050         0.946920037         0.500000000
     0.606309950         0.053079963         0.500000000
     0.553229988         0.606309950         0.500000000
     0.446770012         0.393690050         0.500000000
     0.905420005         0.594930053         0.500000000
     0.094579995         0.405069947         0.500000000
     0.405069947         0.310489953         0.500000000
     0.594930053         0.689510047         0.500000000
     0.689510047         0.094579995         0.500000000
     0.310489953         0.905420005         0.500000000
     0.594930053         0.905420005         0.500000000
     0.405069947         0.094579995         0.500000000
     0.310489953         0.405069947         0.500000000
     0.689510047         0.594930053         0.500000000
     0.094579995         0.689510047         0.500000000
     0.905420005         0.310489953         0.500000000
