POSCAR file written by OVITO            
   1.00000000000000     
    29.9178372000000010    0.0000000000000000    0.0000000000000000
   -14.9589186000000005   25.9096070000000012    0.0000000000000000
     0.0000000000000000    0.0000000000000000   30.0000000000000000
 B    O    C    H 
     6    12    54    24
Direct
  0.1126978381747624  0.5563493866324595  0.4565767300000019
  0.5563484449909782  0.1126978392484423  0.4565767300000019
  0.4436506613301912  0.5563484680542717  0.4565767300000019
  0.8873021398405264  0.4436506095079647  0.4565767300000019
  0.4436515343651831  0.8873021761898464  0.4565767300000019
  0.5563493754371766  0.4436515319457282  0.4565767300000019
  0.6102045648792006  0.1428840371425509  0.4565767300000019
  0.4673205774050648  0.6102046036660517  0.4565767300000019
  0.8571160257572641  0.4673205395064987  0.4565767300000019
  0.3897953754731100  0.8571159705765934  0.4565767300000019
  0.5326794875149016  0.3897953924743797  0.4565767300000019
  0.1428840344075085  0.5326794604935013  0.4565767300000019
  0.8571156460167868  0.3897946205599291  0.4565767300000019
  0.3897946285970841  0.5326789819065464  0.4565767300000019
  0.5326789901608929  0.1428843497678970  0.4565767300000019
  0.1428843319985021  0.6102053755804951  0.4565767300000019
  0.6102053881153572  0.4673210180934537  0.4565767300000019
  0.4673210181767648  0.8571156000576605  0.4565767300000019
  0.9461083520049185  0.4730537059645484  0.4565767300000019
  0.4730546626981990  0.9461083691030139  0.4565767300000019
  0.5269463105223168  0.4730546631384654  0.4565767300000019
  0.0538916179126918  0.5269462940354516  0.4565767300000019
  0.5269453408152572  0.0538916308969863  0.4565767300000019
  0.4730536894776832  0.5269453368615346  0.4565767300000019
  0.4726682040239973  0.0267548358663047  0.4565767300000019
  0.4459133716438143  0.4726681949795485  0.4565767300000019
  0.9732451656900327  0.4459133552536753  0.4565767300000019
  0.5273317921164267  0.9732451564145510  0.4565767300000019
  0.5540866918634509  0.5273318050204512  0.4565767300000019
  0.0267548042275846  0.5540866447463247  0.4565767300000019
  0.9732435306336189  0.5273301106682371  0.4565767300000019
  0.5273301017695491  0.5540866100101712  0.4565767300000019
  0.5540866288538356  0.0267564877632208  0.4565767300000019
  0.0267564867344544  0.4726699240679161  0.4565767300000019
  0.4726699175283082  0.4459134285855510  0.4565767300000019
  0.4459134481619271  0.9732435392537813  0.4565767300000019
  0.6199303628893919  0.1930195484774493  0.4565767300000019
  0.4269108217175722  0.6199303835274467  0.4565767300000019
  0.8069804869807861  0.4269108311904214  0.4565767300000019
  0.3800696210538063  0.8069804862586970  0.4565767300000019
  0.5730891167049470  0.3800696203321222  0.4565767300000019
  0.1930195591584059  0.5730891340734252  0.4565767300000019
  0.8069803818749740  0.3800692498131893  0.4565767300000019
  0.3800692390407575  0.5730889102182366  0.4565767300000019
  0.5730889206730487  0.1930196604050472  0.4565767300000019
  0.1930196547909638  0.6199308235186866  0.4565767300000019
  0.6199308103394902  0.4269111283774857  0.4565767300000019
  0.4269111127518267  0.8069803395949527  0.4565767300000019
  0.6664940980336476  0.2377663985063406  0.4565767300000019
  0.4287276049332145  0.6664940204562364  0.4565767300000019
  0.7622335704068320  0.4287276219499030  0.4565767300000019
  0.3335059621311321  0.7622336014936594  0.4565767300000019
  0.5712724058513111  0.3335059409480413  0.4565767300000019
  0.2377663961682926  0.5712723780500973  0.4565767300000019
  0.7622334886061822  0.3335057209524214  0.4565767300000019
  0.3335056953877972  0.5712721927906309  0.4565767300000019
  0.5712722037162273  0.2377665258722202  0.4565767300000019
  0.2377665421318396  0.6664943137837249  0.4565767300000019
  0.6664942518894699  0.4287277686136473  0.4565767300000019
  0.4287277565524544  0.7622334548299151  0.4565767300000019
  0.6663645122180404  0.2850521451814910  0.4565767300000019
  0.3813123651182758  0.6663645092882169  0.4565767300000019
  0.7149478451810986  0.3813123486684370  0.4565767300000019
  0.3336355289259867  0.7149478702567983  0.4565767300000019
  0.6186876047993344  0.3336354907117833  0.4565767300000019
  0.2850521374508286  0.6186876165954167  0.4565767300000019
  0.7149478492465186  0.3336354173799148  0.4565767300000019
  0.3336354156373229  0.6186876165954167  0.4565767300000019
  0.6186876221789255  0.2850521837772131  0.4565767300000019
  0.2850521808358717  0.6663645826200855  0.4565767300000019
  0.6663645716483677  0.3813124181407369  0.4565767300000019
  0.3813123715146313  0.7149477969249297  0.4565767300000019
  0.4519492169463332  0.4038072808606100  0.4565767300000019
  0.0481419399944543  0.4519492042678065  0.4565767300000019
  0.5961927326970500  0.0481419427050541  0.4565767300000019
  0.5480508171341814  0.5961927538755365  0.4565767300000019
  0.9518580606611845  0.5480508304683471  0.4565767300000019
  0.4038072576540214  0.9518580379970881  0.4565767300000019
  0.5961925136580764  0.5480527448161741  0.4565767300000019
  0.5480527432000446  0.9518602456724107  0.4565767300000019
  0.9518602121738947  0.4038074661200836  0.4565767300000019
  0.4038074863419238  0.4519472551838190  0.4565767300000019
  0.4519472799573888  0.0481398006424557  0.4565767300000019
  0.0481398179084949  0.5961925338799166  0.4565767300000019
  0.5340853999365047  0.2981687806721799  0.4565767300000019
  0.2359166300944742  0.5340853955146765  0.4565767300000019
  0.7018312097245152  0.2359166341403614  0.4565767300000019
  0.4659145981337107  0.7018312154682513  0.4565767300000019
  0.7640833364806506  0.4659146044853233  0.4565767300000019
  0.2981687806265560  0.7640833465617741  0.4565767300000019
  0.7018315459853548  0.4659147125533454  0.4565767300000019
  0.4659146831251451  0.7640831998980299  0.4565767300000019
  0.7640832006470485  0.2981684873446843  0.4565767300000019
  0.2981684907820059  0.5340852874466544  0.4565767300000019
  0.5340853245939992  0.2359168155402592  0.4565767300000019
  0.2359167993529517  0.7018315126553156  0.4565767300000019
