 B  O  C  H 
 1.0000000000000000
    30.1764072796988359   -0.0000000342307294   -0.0000000000000010
   -15.0882036694940975   26.1335353696970074   -0.0000000000000094
    -0.0000000000000010    0.0000000000000019   29.9843358009741863
 B   O   C   H  
   6  12  54  24
Cartesian
 -4.9809433112485966 14.5466046327323344 14.9921679004870754
 15.0882065069529894  2.9596788632817592 14.9921679004870878
  4.9809461485606521 14.5466095933893218 14.9921679004870505
 20.0691469214533633 11.5869307027339801 14.9921679004870914
 -0.0000028967482614 23.1738564721845783 14.9921679004870807
 10.1072574616440765 11.5869257420769909 14.9921679004870914
 16.2450133286827807  3.7551852750663377 14.9921679004870914
  4.8704208009465759 15.9461868950032439 14.9921679004870505
 18.8018147515247414 12.1910015933417935 14.9921679004870878
 -1.1568097184780537 22.3783500603999919 14.9921679004870807
 10.2177828092581695 10.1873484404630705 14.9921679004870665
 -3.7136111413199737 13.9425337421245210 14.9921679004870789
 19.9586223575066626 10.1873533905333922 14.9921679004870985
  3.7136143609416878 13.9425380240949330 14.9921679004870487
 13.9313992837368783  3.7551846073914090 14.9921679004870878
 -4.8704187473019003 15.9461819449329205 14.9921679004870665
 11.3745892492630389 12.1909973113713939 14.9921679004871056
  1.1568043264678458 22.3783507280749348 14.9921679004870843
 13.8783977240849481  0.6956010330389889 14.9921679004870683
  6.3367906708114026 12.3668455368757755 14.9921679004870807
 22.6348002284880536 11.6712444677841809 14.9921679004870914
  1.2098058861197791 25.4379343024273510 14.9921679004870594
  8.7514129393933136 13.7666897985905319 14.9921679004870718
 -7.5465966182832878 14.4622908676821389 14.9921679004870754
 21.4249960472899872 13.7666929550107984 14.9921679004870647
  7.5466002002109205 14.4622909305612524 14.9921679004870612
 16.2980114304136201  0.6955979393378550 14.9921679004870843
 -6.3367924370852187 12.3668423804555196 14.9921679004870860
  7.5416034099938027 11.6712444049050585 14.9921679004870825
 -1.2098078202088918 25.4379373961284934 14.9921679004870541
 15.7884672114643276  5.0587402454979422 14.9921679004870949
  3.5132360064871389 16.2025839078866909 14.9921679004870718
 17.9011760643727733 11.1438435899844404 14.9921679004870843
 -0.7002636012595899 21.0747950899683900 14.9921679004870629
 11.5749676037176012  9.9309514275796378 14.9921679004870736
 -2.8129724541680003 14.9896917454818723 14.9921679004870718
 18.6014379270955423  9.9309555288210234 14.9921679004870825
  2.8129751169026807 14.9896952894888926 14.9921679004870647
 14.3879444794117060  5.0587396876673489 14.9921679004870878
 -3.5132343168907760 16.2025798066453106 14.9921679004870647
 12.2752284933020643 11.1438400459774360 14.9921679004870949
  0.7002591307930220 21.0747956477989824 14.9921679004870629
 16.5118675372258181  6.2244458653291366 14.9921679004871233
  2.8654055000410819 17.4119196758027357 14.9921679004870896
 16.5299452594804634 11.1874738042145747 14.9921679004870825
 -1.4236639270210825 19.9090894701371894 14.9921679004870665
 12.2227981101636711  8.7216156596635965 14.9921679004870825
 -1.4417416492757107 14.9460615312517735 14.9921679004870700
 17.9536089589394798  8.7216189710027852 14.9921679004870931
  1.4417443922767568 14.9460633517344075 14.9921679004870665
 13.6645426979327897  6.2244443753801608 14.9921679004871109
 -2.8654053487347224 17.4119163644635186 14.9921679004870825
 13.6464592179279816 11.1874719837319319 14.9921679004870878
  1.4236609122719572 19.9090909600861821 14.9921679004870700
 15.8037306640846307  7.4550968998819513 14.9921679004871091
  1.4455620273176080 17.4139807413292331 14.9921679004870825
 15.8182386223033067  9.9588838115639096 14.9921679004870771
 -0.7155270538798725 18.6784384355843756 14.9921679004870771
 13.6426415828871495  8.7195545941371009 14.9921679004870896
 -0.7300350120985478 16.1746515239024227 14.9921679004870647
 16.5337655981883991  8.7195561800457675 14.9921679004870931
  0.7300363120450989 16.1746523862913953 14.9921679004870629
 14.3726780157674217  7.4550961757492304 14.9921679004871038
 -1.4455619879836548 17.4139791554205736 14.9921679004870825
 14.3581672981596551  9.9588829491749475 14.9921679004870771
  0.7155255944373317 18.6784391597171116 14.9921679004870771
 21.4045507074392525 12.3579253184576245 14.9921679004870878
 -0.0000019301068634 24.7158473932182083 14.9921679004870647
  8.7718546423348833 12.3579220385170938 14.9921679004870843
 -6.3163470972344866 13.7756100170087006 14.9921679004870843
 15.0882055403115860  1.4176879422481319 14.9921679004870896
  6.3163489678698435 13.7756132969492153 14.9921679004870647
  7.5360199478868815 10.5799338090511483 14.9921679004870665
 -5.3944814686895990 11.8163516585432991 14.9921679004870665
 17.2459058611264879  1.2364178148633789 14.9921679004871180
  7.5521836623178462 15.5536015264151608 14.9921679004870345
 20.4826850788943595 14.3171836769230172 14.9921679004870416
 -2.1577022509217576 24.8971175206029542 14.9921679004870541
  9.6937252383007753 14.3171782213225107 14.9921679004870665
  2.1576989945866947 24.8971121229341144 14.9921679004870576
 22.6403810380732367 10.5799338669406033 14.9921679004871056
  5.3944783719039480 11.8163571141438020 14.9921679004870914
 12.9305046156180339  1.2364232125322456 14.9921679004870736
 -7.5521774278684735 15.5536014685257147 14.9921679004870754
 11.6369364010135445  7.8058901088760884 14.9921679004871002
 -0.9416309444219354 13.9808276430303469 14.9921679004870665
 17.5978399227038409  6.1749374925257454 14.9921679004871535
  3.4512672091912044 18.3276452265902492 14.9921679004871056
 16.0298345546267029 12.1527076924359854 14.9921679004870843
 -2.5096363124990986 19.9585978429405628 14.9921679004870523
 14.1465685360462352 12.1527065898076163 14.9921679004870914
  2.5096332291553933 19.9586008872943808 14.9921679004870665
 18.5394719853332752  7.8058942565954208 14.9921679004870896
  0.9416350741585077 13.9808287456587301 14.9921679004870647
 12.5785703810493494  6.1749344481719808 14.9921679004871411
 -3.4512683751285360 18.3276410788708901 14.9921679004870967
