POSCAR file written by OVITO Basic 3.7.5
   1.00000000000000     
    30.1685281277456170    0.0000000000000000    0.0000000000000000
   -15.0842640638728085   26.1267117533846012    0.0000000000000000
     0.0000000000000000    0.0000000000000000   30
   B    O    C    H 
     6    12    54    24
Direct
  0.1131530083923025  0.5565766088524882  0.5000000000000000
  0.5565763995398285  0.1131530083923025  0.5000000000000000
  0.4434233911475118  0.5565763995398285  0.5000000000000000
  0.8868469916076975  0.4434233911475118  0.5000000000000000
  0.4434236004601715  0.8868469916076975  0.5000000000000000
  0.5565766088524882  0.4434236004601715  0.5000000000000000
  0.6101288642539231  0.1435133296282487  0.5000000000000000
  0.4666155346256673  0.6101288642539231  0.5000000000000000
  0.8564866703717513  0.4666155346256673  0.5000000000000000
  0.3898711357460698  0.8564866703717513  0.5000000000000000
  0.5333844653743327  0.3898711357460698  0.5000000000000000
  0.1435133296282487  0.5333844653743327  0.5000000000000000
  0.8564867229201241  0.3898715053707278  0.5000000000000000
  0.3898715053707278  0.5333847824506108  0.5000000000000000
  0.5333847824506108  0.1435132770798759  0.5000000000000000
  0.1435132770798759  0.6101284946292651  0.5000000000000000
  0.6101284946292651  0.4666152175493892  0.5000000000000000
  0.4666152175493892  0.8564867229201241  0.5000000000000000
  0.4731604819509840  0.0266255514490510  0.5000000000000000
  0.4465349305019259  0.4731604819509840  0.5000000000000000
  0.9733744485509490  0.4465349305019259  0.5000000000000000
  0.5268395180490160  0.9733744485509490  0.5000000000000000
  0.5534650694980741  0.5268395180490160  0.5000000000000000
  0.0266255514490510  0.5534650694980741  0.5000000000000000
  0.9733748524327197  0.5268398276163282  0.5000000000000000
  0.5268398276163282  0.5534649751836085  0.5000000000000000
  0.5534649751836085  0.0266251475672803  0.5000000000000000
  0.0266251475672803  0.4731601723836718  0.5000000000000000
  0.4731601723836718  0.4465350248163915  0.5000000000000000
  0.4465350248163915  0.9733748524327197  0.5000000000000000
  0.6199439813449317  0.1934340824703185  0.5000000000000000
  0.4265098988746203  0.6199439813449317  0.5000000000000000
  0.8065659175296815  0.4265098988746203  0.5000000000000000
  0.3800560186550683  0.8065659175296815  0.5000000000000000
  0.5734901011253797  0.3800560186550683  0.5000000000000000
  0.1934340824703185  0.5734901011253797  0.5000000000000000
  0.8065674166430910  0.3800577036677382  0.5000000000000000
  0.3800577036677382  0.5734902870246472  0.5000000000000000
  0.5734902870246472  0.1934325833569090  0.5000000000000000
  0.1934325833569090  0.6199422963322618  0.5000000000000000
  0.6199422963322618  0.4265097129753528  0.5000000000000000
  0.4265097129753528  0.8065674166430910  0.5000000000000000
  0.6661582591758020  0.2380895320661622  0.5000000000000000
  0.4280687271096326  0.6661582591758020  0.5000000000000000
  0.7619104679338378  0.4280687271096326  0.5000000000000000
  0.3338417408241980  0.7619104679338378  0.5000000000000000
  0.5719312728903674  0.3338417408241980  0.5000000000000000
  0.2380895320661622  0.5719312728903674  0.5000000000000000
  0.7619110685801260  0.3338409518376864  0.5000000000000000
  0.3338409518376864  0.5719298832575674  0.5000000000000000
  0.5719298832575674  0.2380889314198740  0.5000000000000000
  0.2380889314198740  0.6661590481623136  0.5000000000000000
  0.6661590481623136  0.4280701167424326  0.5000000000000000
  0.4280701167424326  0.7619110685801260  0.5000000000000000
  0.6663266775192014  0.2852504959206072  0.5000000000000000
  0.3810761815985870  0.6663266775192014  0.5000000000000000
  0.7147495040793928  0.3810761815985870  0.5000000000000000
  0.3336733224807986  0.7147495040793928  0.5000000000000000
  0.6189238184014130  0.3336733224807986  0.5000000000000000
  0.2852504959206072  0.6189238184014130  0.5000000000000000
  0.7147517712627263  0.3336743150182215  0.5000000000000000
  0.3336743150182215  0.6189225437555095  0.5000000000000000
  0.6189225437555095  0.2852482287372737  0.5000000000000000
  0.2852482287372737  0.6663256849817785  0.5000000000000000
  0.6663256849817785  0.3810774562444905  0.5000000000000000
  0.3810774562444905  0.7147517712627263  0.5000000000000000
  0.9458137448235675  0.4729068339753084  0.5000000000000000
  0.4729069108482591  0.9458137448235675  0.5000000000000000
  0.5270931660246916  0.4729069108482591  0.5000000000000000
  0.0541862551764325  0.5270931660246916  0.5000000000000000
  0.5270930891517409  0.0541862551764325  0.5000000000000000
  0.4729068339753084  0.5270930891517409  0.5000000000000000
  0.4522013119337771  0.4047594390353382  0.5000000000000000
  0.0474418728984247  0.4522013119337771  0.5000000000000000
  0.5952405609646618  0.0474418728984247  0.5000000000000000
  0.5477986880662229  0.5952405609646618  0.5000000000000000
  0.9525581271015753  0.5477986880662229  0.5000000000000000
  0.4047594390353382  0.9525581271015753  0.5000000000000000
  0.5952411891607525  0.5477991022324318  0.5000000000000000
  0.5477991022324318  0.9525579130716935  0.5000000000000000
  0.9525579130716935  0.4047588108392475  0.5000000000000000
  0.4047588108392475  0.4522008977675682  0.5000000000000000
  0.4522008977675682  0.0474420869283065  0.5000000000000000
  0.0474420869283065  0.5952411891607525  0.5000000000000000
  0.5350517866270650  0.2987450871648534  0.5000000000000000
  0.2363066994622187  0.5350517866270650  0.5000000000000000
  0.7012549128351466  0.2363066994622187  0.5000000000000000
  0.4649482133729350  0.7012549128351466  0.5000000000000000
  0.7636933005377813  0.4649482133729421  0.5000000000000000
  0.2987450871648534  0.7636933005377813  0.5000000000000000
  0.7012546745367629  0.4649478537425438  0.5000000000000000
  0.4649478537425438  0.7636931792057666  0.5000000000000000
  0.7636931792057666  0.2987453254632371  0.5000000000000000
  0.2987453254632371  0.5350521462574633  0.5000000000000000
  0.5350521462574633  0.2363068207942334  0.5000000000000000
  0.2363068207942334  0.7012546745367629  0.5000000000000000
